p cnf 100 20
x 1 -4 -6 7 -8 9 10 -11 -12 -13 -16 17 18 19 -20 21 23 -24 26 27 -28 30 32 -36 -37 -38 -40 44 -52 -53 -54 -57 -60 -61 -62 -63 64 -66 -67 -69 -70 76 -77 -81 -85 -86 -87 -88 91 93 95 96 97 0
x -3 5 7 -8 -11 12 -13 -15 16 -17 -20 21 22 -25 -26 28 -35 -36 37 40 41 -42 44 -46 -48 51 59 -60 -61 -62 64 -65 -66 69 -70 71 72 74 77 -80 81 -84 86 87 -88 89 90 -93 99 -100 0
x 3 -4 -8 -11 -13 -16 -22 23 -25 28 -30 32 -34 -35 -36 -37 39 -41 43 -46 47 -48 51 -52 -53 54 55 56 58 64 66 68 -72 -73 -74 -76 78 79 -80 -82 -83 84 -85 -87 89 -90 -91 92 94 -95 96 -97 -98 -99 0
x 1 3 -4 -6 -11 14 -15 16 -18 -19 20 23 -26 27 28 -33 -34 36 37 38 39 43 44 45 47 48 -51 54 -57 -62 63 -64 -66 -67 69 73 74 -76 77 78 79 80 -82 83 -85 88 89 92 93 -95 96 97 -98 -99 0
x 2 -4 -6 7 8 9 -10 -12 -16 20 22 -23 24 -26 -28 -32 -33 34 35 37 38 -39 -44 45 48 -52 57 -58 60 -62 63 65 66 67 69 70 -72 73 -75 76 -77 -78 81 -82 84 -85 88 90 -92 -94 -95 -99 0
x 1 -2 6 -8 -9 12 14 17 -18 23 24 -25 27 30 31 34 -35 39 40 -43 -44 -45 47 48 -49 51 -52 -54 -55 56 -57 58 -62 -63 -65 -66 69 71 74 76 -78 -82 83 -85 86 -89 91 93 -94 96 97 -98 99 -100 0
x 1 -2 -4 -8 -9 14 -16 17 19 -25 26 27 28 -29 30 -31 -32 -34 -35 38 39 40 -46 47 -48 49 50 53 58 59 62 -63 -68 70 -72 -75 -76 80 82 87 89 90 91 -92 96 99 0
x -2 5 6 -8 9 -14 -15 -17 18 20 -22 -23 24 -25 27 -28 33 -34 -35 36 -37 41 -42 -43 44 -45 48 49 55 56 62 63 66 67 -68 -69 -70 71 -75 -76 77 -81 82 -83 -84 86 -87 88 -89 90 -95 96 98 99 0
x -1 2 -5 7 -14 16 17 18 20 23 25 -32 -33 -34 35 -40 -41 46 47 48 -54 56 -61 -63 64 65 67 68 69 -72 -76 -78 -82 -83 85 -86 87 88 -92 96 -98 -99 -100 0
x -1 2 5 -7 -10 12 -13 -14 15 16 -17 -18 19 21 25 27 -28 -29 -32 34 36 37 -40 43 47 48 49 -50 51 55 -57 -58 -62 63 -66 69 71 -78 80 81 -82 84 90 92 94 -96 97 98 -99 -100 0
x -2 -4 -6 -7 -11 12 -14 -15 16 -18 -22 -23 25 26 -27 28 -30 -33 -35 38 -43 44 -45 -46 -49 -55 56 -57 59 62 63 -64 67 68 69 71 -74 -77 78 -84 -85 86 -87 88 -91 97 -98 99 -100 0
x -2 3 4 -5 8 -10 11 -13 15 16 -17 20 21 25 26 -27 -28 -29 -30 31 33 -34 -36 -37 -40 42 -43 49 53 -54 56 57 -58 59 -60 62 -63 -64 -65 66 67 -68 -69 -70 72 73 74 -77 -79 80 81 -82 -83 84 -90 91 -92 93 -97 -100 0
x -1 2 3 -8 9 10 11 -14 17 -21 24 -26 29 -31 32 37 -39 -40 -44 45 -48 51 -54 -59 -61 -63 66 74 -76 78 82 83 -85 87 88 89 -91 92 96 -98 99 -100 0
x -1 -3 5 6 -7 8 -10 13 -14 16 -17 -19 -22 -23 26 -29 31 32 -34 36 -38 -39 40 41 -44 -47 -49 50 -54 -55 -56 -59 -61 -62 -64 65 -68 -70 73 -75 -76 -78 -81 84 85 86 -87 -89 90 -92 -93 -94 -95 -96 97 98 -99 0
x -1 3 -5 6 7 8 9 11 -12 -13 -15 -19 -20 21 23 -24 -27 -28 -29 30 -31 33 37 -38 -39 40 42 -43 44 -45 -47 56 57 65 -67 -69 70 71 -72 -76 -79 -81 83 -84 85 88 -89 90 91 -92 93 -95 -96 -98 0
x 1 -6 7 10 -11 12 13 -14 15 -16 21 -24 26 31 34 38 -39 -40 44 52 -53 54 -55 -56 -58 -59 61 62 -63 -65 -66 -67 68 69 -70 72 73 -74 -76 80 83 -84 87 -89 92 93 -97 -99 0
x -1 -5 -6 -7 8 -9 10 -12 -15 18 19 20 21 -25 -26 -27 30 -31 -32 34 36 37 -38 -39 -40 42 -44 -45 -46 48 -53 54 55 -56 -60 61 64 -69 -70 71 74 -76 -79 80 81 -82 -84 -85 -87 88 90 -91 -94 -95 97 -99 -100 0
x -5 6 -11 12 13 -14 -15 20 -22 23 29 -31 -35 37 -44 45 -46 48 50 51 -52 -53 -55 -59 -60 -62 63 -65 67 -69 -72 -74 -75 -77 79 80 -81 85 -86 90 95 96 98 0
x 2 -5 -14 -15 21 -22 -23 25 -27 28 29 30 -34 35 36 40 41 42 45 46 47 51 53 -54 56 57 -58 -60 61 63 -65 -66 -68 -71 73 76 77 78 79 -82 -84 -85 89 -90 -91 -94 98 99 0
x 3 6 7 8 -9 12 -14 -15 16 17 -18 19 21 23 24 -27 -29 -30 33 -34 -35 -36 -38 -39 -40 -42 -48 -50 -53 -54 -55 -57 -58 -60 -61 -62 67 -70 72 74 75 -77 81 -83 84 -86 88 89 90 -91 -92 -93 -94 97 99 0
g -20